
Gurobi 11.0.3 (mac64[x86]) logging started Tue Apr  8 20:51:45 2025

Set parameter LogFile to value "Results/Conservative_experiment/sanity_check_v14.log"
Set parameter TimeLimit to value 84600
Set parameter Method to value 2
Set parameter Crossover to value 0
Set parameter BarConvTol to value 1e-10
Gurobi Optimizer version 11.0.3 build v11.0.3rc0 (mac64[x86] - Darwin 23.4.0 23E214)

CPU model: Intel(R) Core(TM) i7-1060NG7 CPU @ 1.20GHz
Thread count: 4 physical cores, 8 logical processors, using up to 8 threads

Optimize a model with 3282976 rows, 3705248 columns and 14996144 nonzeros
Model fingerprint: 0x1ae61d6c
Coefficient statistics:
  Matrix range     [1e-01, 3e+00]
  Objective range  [6e-05, 5e+00]
  Bounds range     [0e+00, 0e+00]
  RHS range        [4e+00, 1e+03]
Presolve removed 1801504 rows and 1850000 columns (presolve time = 5s) ...
Presolve removed 2480421 rows and 2690030 columns (presolve time = 10s) ...
Presolve removed 2625734 rows and 2827086 columns
Presolve time: 12.35s
Presolved: 657242 rows, 878162 columns, 3593400 nonzeros
Ordering time: 1.96s

Barrier statistics:
 AA' NZ     : 1.949e+06
 Factor NZ  : 2.111e+07 (roughly 260 MB of memory)
 Factor Ops : 1.686e+10 (less than 1 second per iteration)
 Threads    : 4

                  Objective                Residual
Iter       Primal          Dual         Primal    Dual     Compl     Time
   0   3.21501877e+06  6.82547945e+06  7.62e+04 3.10e+00  1.05e+04    17s
   1   2.75557056e+06  6.49610613e+06  7.21e+04 5.40e+00  9.61e+03    17s
   2  -2.42934086e+05  5.55747035e+06  4.54e+04 4.82e+00  5.75e+03    18s
   3  -5.15516662e+06  3.99722946e+06  6.70e+03 3.51e-01  8.75e+02    18s
   4  -1.43800861e+06  1.63040271e+06  8.53e+02 3.50e-02  1.32e+02    19s
   5  -3.34417501e+05  4.04975926e+05  1.64e+02 4.50e-03  2.69e+01    19s
   6  -9.58686170e+04  1.24424325e+05  4.02e+01 8.74e-04  6.90e+00    20s
   7  -9.53851239e+03  2.52904073e+04  2.02e+00 2.42e-13  5.48e-01    21s
   8  -1.39179492e+03  5.76477661e+03  2.85e-01 6.04e-14  8.41e-02    22s
   9   2.61965813e+02  1.07219641e+03  1.13e-02 3.15e-14  7.91e-03    23s
  10   3.24622477e+02  6.45162428e+02  4.20e-03 4.02e-14  3.11e-03    23s
  11   3.63661649e+02  4.41170901e+02  1.02e-04 4.14e-14  7.29e-04    24s
  12   3.66341901e+02  3.81440326e+02  5.90e-06 8.92e-14  1.42e-04    25s
  13   3.66417879e+02  3.80788701e+02  5.59e-06 9.81e-14  1.35e-04    26s
  14   3.66696581e+02  3.77896313e+02  4.53e-06 1.25e-13  1.05e-04    26s
  15   3.66807537e+02  3.77135376e+02  4.19e-06 9.88e-14  9.70e-05    27s
  16   3.66833062e+02  3.76975013e+02  4.12e-06 1.08e-13  9.53e-05    28s
  17   3.67063941e+02  3.75242294e+02  3.47e-06 1.27e-13  7.68e-05    29s
  18   3.67211447e+02  3.74670781e+02  3.11e-06 1.23e-13  7.01e-05    29s
  19   3.67264710e+02  3.74427495e+02  2.99e-06 1.78e-13  6.73e-05    30s
  20   3.67353365e+02  3.73956770e+02  2.78e-06 2.31e-13  6.20e-05    31s
  21   3.67364857e+02  3.73676254e+02  2.75e-06 1.70e-13  5.93e-05    32s
  22   3.67369429e+02  3.73665171e+02  2.74e-06 1.88e-13  5.92e-05    32s
  23   3.67374668e+02  3.73652291e+02  2.73e-06 1.95e-13  5.90e-05    33s
  24   3.67391880e+02  3.73568528e+02  2.68e-06 1.46e-13  5.80e-05    34s
  25   3.67707237e+02  3.71377282e+02  1.82e-06 2.05e-13  3.45e-05    35s
  26   3.67729739e+02  3.71044350e+02  1.74e-06 1.60e-13  3.12e-05    35s
  27   3.67911625e+02  3.70387211e+02  1.05e-06 1.35e-13  2.33e-05    36s
  28   3.67914064e+02  3.70354357e+02  1.04e-06 1.48e-13  2.29e-05    37s
  29   3.67927441e+02  3.70291205e+02  9.88e-07 1.67e-13  2.22e-05    38s
  30   3.67938870e+02  3.70145334e+02  9.43e-07 2.39e-13  2.07e-05    38s
  31   3.67983262e+02  3.69738920e+02  7.71e-07 1.57e-13  1.65e-05    39s
  32   3.68045501e+02  3.69374330e+02  5.92e-07 1.48e-13  1.25e-05    40s
  33   3.68051247e+02  3.69357842e+02  5.83e-07 1.51e-13  1.23e-05    41s
  34   3.68116341e+02  3.69289937e+02  4.95e-07 1.58e-13  1.10e-05    42s
  35   3.68321815e+02  3.69247340e+02  3.27e-07 2.23e-13  8.70e-06    42s
  36   3.68325653e+02  3.69242321e+02  3.24e-07 2.09e-13  8.62e-06    43s
  37   3.68457136e+02  3.69207052e+02  2.51e-07 1.92e-13  7.05e-06    44s
  38   3.68461487e+02  3.69194685e+02  2.49e-07 1.46e-13  6.89e-06    45s
  39   3.68484047e+02  3.69172483e+02  2.38e-07 1.49e-13  6.47e-06    45s
  40   3.68508626e+02  3.69150134e+02  2.26e-07 2.42e-13  6.03e-06    46s
  41   3.68657841e+02  3.69134708e+02  1.59e-07 1.88e-13  4.48e-06    47s
  42   3.68686503e+02  3.69122827e+02  1.48e-07 2.24e-13  4.10e-06    48s
  43   3.68778748e+02  3.69103211e+02  1.12e-07 1.87e-13  3.05e-06    49s
  44   3.68842372e+02  3.69070910e+02  8.40e-08 1.42e-13  2.15e-06    49s
  45   3.68858143e+02  3.69054329e+02  7.55e-08 1.90e-13  1.85e-06    50s
  46   3.68862106e+02  3.69050197e+02  7.32e-08 2.70e-13  1.77e-06    51s
  47   3.68882482e+02  3.69036624e+02  6.11e-08 2.02e-13  1.45e-06    52s
  48   3.68886381e+02  3.69031348e+02  5.83e-08 3.44e-13  1.36e-06    52s
  49   3.68890719e+02  3.69026277e+02  5.50e-08 3.03e-13  1.28e-06    53s
  50   3.68897658e+02  3.69016370e+02  4.94e-08 3.46e-13  1.12e-06    54s
  51   3.68898397e+02  3.69015831e+02  4.87e-08 2.96e-13  1.11e-06    55s
  52   3.68910517e+02  3.69006360e+02  3.78e-08 3.20e-13  9.02e-07    55s
  53   3.68923547e+02  3.68981443e+02  2.25e-08 3.85e-13  5.45e-07    56s
  54   3.68926514e+02  3.68977188e+02  1.88e-08 3.26e-13  4.77e-07    57s
  55   3.68926908e+02  3.68967695e+02  1.38e-08 3.91e-13  3.84e-07    58s
  56   3.68929204e+02  3.68960384e+02  1.10e-08 4.99e-13  2.94e-07    59s
  57   3.68933342e+02  3.68952685e+02  5.77e-09 4.52e-13  1.82e-07    60s
  58   3.68935315e+02  3.68946463e+02  3.60e-09 7.94e-13  1.05e-07    61s
  59   3.68936453e+02  3.68941532e+02  4.31e-09 1.08e-12  4.78e-08    62s
  60   3.68936800e+02  3.68939096e+02  1.19e-08 1.22e-12  2.15e-08    63s
  61   3.68936884e+02  3.68938159e+02  1.02e-08 1.81e-12  1.20e-08    63s
  62   3.68936964e+02  3.68937216e+02  5.04e-09 2.75e-12  2.38e-09    64s
  63   3.68936985e+02  3.68937007e+02  2.18e-09 3.43e-12  2.13e-10    65s
  64   3.68937000e+02  3.68937000e+02  1.46e-10 3.48e-12  1.83e-13    66s

Barrier solved model in 64 iterations and 65.65 seconds (51.00 work units)
Optimal objective 3.68937000e+02

